c FILE: v70_d30.dat

p edge 70 725
e 1 2
e 1 21
e 1 24
e 1 37
e 1 42
e 1 44
e 1 46
e 1 62
e 1 66
e 1 68
e 2 3
e 2 6
e 2 10
e 2 14
e 2 18
e 2 21
e 2 22
e 2 26
e 2 29
e 2 30
e 2 36
e 2 37
e 2 39
e 2 41
e 2 45
e 2 52
e 2 53
e 2 57
e 2 58
e 2 61
e 2 64
e 3 4
e 3 6
e 3 7
e 3 8
e 3 14
e 3 15
e 3 17
e 3 28
e 3 31
e 3 33
e 3 35
e 3 38
e 3 44
e 3 49
e 3 53
e 3 54
e 3 56
e 3 58
e 3 61
e 3 64
e 3 65
e 4 5
e 4 6
e 4 7
e 4 8
e 4 9
e 4 10
e 4 13
e 4 17
e 4 19
e 4 20
e 4 25
e 4 28
e 4 34
e 4 39
e 4 45
e 4 52
e 4 54
e 4 56
e 4 57
e 4 60
e 4 69
e 4 70
e 5 6
e 5 8
e 5 15
e 5 17
e 5 28
e 5 33
e 5 34
e 5 38
e 5 41
e 5 44
e 5 45
e 5 46
e 5 47
e 5 49
e 5 62
e 5 64
e 5 67
e 5 70
e 6 7
e 6 10
e 6 11
e 6 12
e 6 13
e 6 20
e 6 26
e 6 29
e 6 34
e 6 39
e 6 48
e 6 54
e 6 62
e 7 8
e 7 11
e 7 12
e 7 17
e 7 22
e 7 24
e 7 28
e 7 29
e 7 31
e 7 39
e 7 53
e 7 57
e 7 59
e 7 60
e 7 62
e 7 64
e 7 67
e 7 69
e 8 9
e 8 11
e 8 13
e 8 14
e 8 17
e 8 21
e 8 24
e 8 26
e 8 32
e 8 35
e 8 44
e 8 46
e 8 47
e 8 49
e 8 51
e 8 54
e 8 58
e 8 60
e 8 61
e 8 62
e 8 65
e 9 10
e 9 13
e 9 15
e 9 19
e 9 21
e 9 24
e 9 25
e 9 28
e 9 36
e 9 38
e 9 39
e 9 50
e 9 54
e 9 58
e 9 63
e 9 70
e 10 11
e 10 12
e 10 14
e 10 16
e 10 18
e 10 23
e 10 28
e 10 32
e 10 33
e 10 34
e 10 37
e 10 43
e 10 45
e 10 46
e 10 47
e 10 48
e 10 52
e 10 58
e 11 12
e 11 13
e 11 17
e 11 21
e 11 26
e 11 29
e 11 31
e 11 35
e 11 37
e 11 40
e 11 43
e 11 44
e 11 52
e 11 56
e 11 61
e 11 64
e 11 65
e 11 66
e 11 69
e 12 13
e 12 21
e 12 23
e 12 26
e 12 28
e 12 29
e 12 41
e 12 45
e 12 57
e 12 58
e 12 59
e 12 61
e 12 65
e 13 14
e 13 15
e 13 21
e 13 23
e 13 24
e 13 26
e 13 35
e 13 37
e 13 40
e 13 47
e 13 49
e 13 52
e 13 54
e 13 58
e 13 59
e 14 15
e 14 16
e 14 17
e 14 22
e 14 24
e 14 26
e 14 30
e 14 32
e 14 33
e 14 35
e 14 37
e 14 40
e 14 41
e 14 45
e 14 46
e 14 49
e 14 53
e 14 54
e 14 64
e 14 65
e 15 16
e 15 18
e 15 19
e 15 20
e 15 28
e 15 44
e 15 46
e 15 47
e 15 49
e 15 51
e 15 56
e 15 59
e 15 63
e 15 65
e 16 17
e 16 19
e 16 23
e 16 27
e 16 30
e 16 31
e 16 32
e 16 38
e 16 42
e 16 48
e 16 50
e 16 53
e 16 54
e 16 57
e 16 62
e 16 64
e 16 65
e 16 68
e 17 18
e 17 19
e 17 23
e 17 25
e 17 32
e 17 33
e 17 34
e 17 37
e 17 39
e 17 44
e 17 49
e 17 51
e 17 55
e 17 61
e 17 64
e 17 66
e 17 69
e 18 19
e 18 20
e 18 22
e 18 23
e 18 27
e 18 28
e 18 29
e 18 37
e 18 40
e 18 46
e 18 47
e 18 53
e 18 54
e 18 61
e 18 62
e 19 20
e 19 23
e 19 24
e 19 28
e 19 31
e 19 32
e 19 37
e 19 40
e 19 45
e 19 55
e 19 56
e 19 63
e 19 66
e 20 21
e 20 22
e 20 24
e 20 25
e 20 27
e 20 31
e 20 33
e 20 37
e 20 39
e 20 40
e 20 42
e 20 50
e 20 54
e 20 58
e 20 62
e 20 65
e 20 66
e 20 69
e 21 22
e 21 27
e 21 32
e 21 35
e 21 40
e 21 44
e 21 51
e 21 53
e 21 57
e 21 60
e 22 23
e 22 25
e 22 29
e 22 30
e 22 31
e 22 33
e 22 34
e 22 35
e 22 36
e 22 43
e 22 44
e 22 49
e 22 50
e 22 56
e 22 57
e 22 60
e 22 63
e 22 68
e 23 24
e 23 25
e 23 29
e 23 32
e 23 34
e 23 35
e 23 41
e 23 43
e 23 47
e 23 54
e 23 55
e 23 56
e 23 59
e 23 67
e 24 25
e 24 28
e 24 43
e 24 44
e 24 48
e 24 51
e 24 52
e 24 53
e 24 56
e 24 62
e 24 67
e 25 26
e 25 28
e 25 33
e 25 38
e 25 43
e 25 48
e 25 52
e 25 53
e 25 54
e 25 59
e 25 60
e 25 61
e 25 64
e 25 65
e 25 69
e 26 27
e 26 28
e 26 30
e 26 31
e 26 35
e 26 38
e 26 39
e 26 40
e 26 41
e 26 44
e 26 45
e 26 46
e 26 48
e 26 50
e 26 52
e 26 57
e 26 61
e 26 67
e 26 68
e 26 70
e 27 28
e 27 29
e 27 42
e 27 45
e 27 59
e 27 64
e 28 29
e 28 31
e 28 35
e 28 37
e 28 42
e 28 46
e 28 49
e 28 50
e 28 53
e 28 54
e 28 59
e 28 60
e 28 62
e 28 64
e 28 67
e 28 69
e 29 30
e 29 39
e 29 42
e 29 43
e 29 44
e 29 46
e 29 51
e 29 57
e 29 58
e 29 66
e 29 69
e 30 31
e 30 32
e 30 43
e 30 44
e 30 46
e 30 49
e 30 50
e 30 54
e 30 55
e 30 58
e 30 60
e 30 68
e 31 32
e 31 36
e 31 37
e 31 39
e 31 42
e 31 43
e 31 46
e 31 47
e 31 48
e 31 51
e 31 54
e 31 56
e 31 57
e 31 60
e 31 62
e 31 63
e 31 66
e 31 68
e 32 33
e 32 35
e 32 40
e 32 45
e 32 46
e 32 48
e 32 52
e 32 53
e 32 59
e 32 61
e 32 64
e 32 66
e 33 34
e 33 36
e 33 37
e 33 40
e 33 43
e 33 48
e 33 49
e 33 52
e 33 53
e 33 58
e 33 60
e 33 61
e 34 35
e 34 40
e 34 44
e 34 48
e 34 54
e 34 55
e 34 57
e 34 64
e 34 65
e 34 66
e 34 69
e 35 36
e 35 40
e 35 42
e 35 46
e 35 49
e 35 51
e 35 52
e 35 53
e 35 54
e 35 62
e 35 64
e 35 65
e 35 68
e 35 69
e 36 37
e 36 40
e 36 47
e 36 56
e 36 65
e 36 66
e 36 67
e 37 38
e 37 42
e 37 43
e 37 44
e 37 47
e 37 49
e 37 52
e 37 53
e 37 54
e 37 55
e 37 58
e 37 60
e 37 61
e 37 62
e 37 70
e 38 39
e 38 40
e 38 44
e 38 49
e 38 53
e 38 59
e 38 62
e 38 65
e 39 40
e 39 43
e 39 44
e 39 46
e 39 47
e 39 48
e 39 49
e 39 51
e 39 53
e 39 54
e 39 58
e 39 60
e 39 64
e 39 65
e 40 41
e 40 42
e 40 44
e 40 52
e 40 54
e 40 70
e 41 42
e 41 43
e 41 46
e 41 49
e 41 50
e 41 59
e 41 61
e 41 62
e 41 63
e 41 68
e 42 43
e 42 45
e 42 48
e 42 49
e 42 52
e 42 54
e 42 55
e 42 58
e 42 63
e 43 44
e 43 45
e 43 47
e 43 49
e 43 50
e 43 53
e 43 56
e 43 66
e 44 45
e 44 47
e 44 48
e 44 56
e 44 59
e 44 62
e 44 64
e 44 65
e 44 66
e 44 70
e 45 46
e 45 52
e 45 55
e 45 57
e 45 64
e 45 69
e 45 70
e 46 47
e 46 59
e 46 70
e 47 48
e 47 54
e 47 58
e 47 59
e 47 65
e 47 70
e 48 49
e 48 50
e 48 51
e 48 52
e 48 56
e 48 58
e 48 60
e 48 66
e 48 68
e 49 50
e 49 53
e 49 56
e 49 57
e 49 58
e 49 59
e 49 61
e 49 62
e 49 64
e 49 66
e 49 69
e 50 51
e 50 52
e 50 55
e 50 57
e 50 59
e 50 65
e 50 67
e 51 52
e 51 59
e 51 61
e 51 63
e 51 64
e 51 66
e 51 67
e 51 68
e 52 53
e 52 56
e 52 57
e 52 68
e 53 54
e 53 62
e 53 64
e 53 67
e 54 55
e 54 56
e 54 58
e 54 70
e 55 56
e 55 59
e 55 62
e 56 57
e 56 59
e 56 60
e 56 64
e 57 58
e 57 66
e 58 59
e 58 66
e 58 67
e 58 69
e 59 60
e 59 67
e 59 68
e 60 61
e 60 63
e 60 68
e 61 62
e 61 65
e 62 63
e 63 64
e 63 65
e 64 65
e 64 68
e 64 69
e 65 66
e 65 67
e 66 67
e 66 69
e 67 68
e 68 69
e 68 70
e 69 70
